<instance format="XCSP3" type="CSP">
  <variables>
    <var id="x0"> 9 11 15 </var>
    <var id="x1"> 3 9 16 </var>
    <var id="x2"> 1 3 </var>
    <var id="x3"> 3 8 9 15 </var>
    <var id="x4"> 1 3 7 8 </var>
    <var id="x5"> 1 3 9 11 </var>
    <var id="x6"> 1 3 8 15 </var>
    <var id="x7"> 1 7 </var>
    <var id="x8"> 3 6 9 11 </var>
    <var id="x9"> 2 3 6 9 17 </var>
    <var id="x10"> 2 3 9 </var>
    <var id="x11"> 3 10 </var>
    <var id="x12"> 0 3 9 11 </var>
    <var id="x13"> 0 2 6 10 </var>
    <var id="x14"> 0 2 9..11 17 </var>
    <var id="x15"> 0 3 6 11 </var>
    <var id="x16"> 3 4 6 9 </var>
    <var id="x17"> 5 9 11 </var>
    <var id="x18"> 3 4 6 9 11 14 </var>
    <var id="x19"> 3 4 12 </var>
    <var id="x20"> 9 11 </var>
    <var id="x21"> 3..5 9 11 12 </var>
    <var id="x22"> 6 12 14 </var>
    <var id="x23"> 3 4 11 14 </var>
    <var id="x24"> 4 6 9 </var>
    <var id="x25"> 1 4 7 8 12 </var>
    <var id="x26"> 7 9 </var>
    <var id="x27"> 1 8 15 </var>
    <var id="x28"> 4 9 </var>
    <var id="x29"> 1 6 8 </var>
    <var id="x30"> 1 4 9 15 </var>
    <var id="x31"> 4 8 </var>
    <var id="x32"> 1 4 6 9 13 </var>
    <var id="x33"> 0 9 11 13 </var>
    <var id="x34"> 0 4 6 9 </var>
    <var id="x35"> 6 9 14 </var>
    <var id="x36"> 9 13 14 </var>
    <var id="x37"> 0 1 4 9 13 </var>
    <var id="x38"> 0 4 11 14 </var>
    <var id="x39"> 1 4 6 11 13 </var>
    <var id="x40"> 3 8 </var>
    <var id="x41"> 2 3 5 12 </var>
    <var id="x42"> 3 5 12 </var>
    <var id="x43"> 3 8 10 17 </var>
    <var id="x44"> 2 10 12 16 </var>
    <var id="x45"> 2 10 12 17 </var>
    <var id="x46"> 3 8 16 </var>
    <var id="x47"> 2 3 8 10 </var>
    <var id="x48"> 1 3 6 7 9 </var>
    <var id="x49"> 2 3 6 9 </var>
    <var id="x50"> 1..3 6 </var>
    <var id="x51"> 0 1 3 </var>
    <var id="x52"> 0..2 6 </var>
    <var id="x53"> 0 2 9 </var>
    <var id="x54"> 0 1 3 6 </var>
    <var id="x55"> 2 9 10 </var>
    <var id="x56"> 1 4 9 14 </var>
    <var id="x57"> 2 9 14 17 </var>
    <var id="x58"> 2 9 10 17 </var>
    <var id="x59"> 1 2 10 14 </var>
    <var id="x60"> 2 4 9 10 14 17 </var>
    <var id="x61"> 1 2 4 17 </var>
    <var id="x62"> 0 4 6 17 </var>
    <var id="x63"> 1 4 6 14 </var>
    <var id="x64"> 1 2 4 6 13 </var>
    <var id="x65"> 1 4 13 </var>
    <var id="x66"> 2 13 17 </var>
    <var id="x67"> 1 2 6 14 17 </var>
    <var id="x68"> 0 2 4 14 17 </var>
    <var id="x69"> 0 1 4 13 17 </var>
    <var id="x70"> 4 5 9 </var>
    <var id="x71"> 2 3 9 </var>
    <var id="x72"> 2 3 9 13 </var>
    <var id="x73"> 3..5 9 11 </var>
    <var id="x74"> 2 4 9..11 </var>
    <var id="x75"> 4 5 9 13 </var>
    <var id="x76"> 2..4 10 11 </var>
    <var id="x77"> 2 4 5 11 13 </var>
    <var id="x78"> 1 3 4 </var>
    <var id="x79"> 2 3 12 17 </var>
    <var id="x80"> 2 3 </var>
    <var id="x81"> 2 10 17 </var>
    <var id="x82"> 1 2 10 12 17 </var>
    <var id="x83"> 0 2 4 10 17 </var>
    <var id="x84"> 0 2..4 10 </var>
    <var id="x85"> 1 2 4 17 </var>
    <var id="x86"> 9 13 </var>
    <var id="x87"> 0 2 9..11 13 </var>
    <var id="x88"> 10 13 </var>
    <var id="x89"> 0 9 11 </var>
    <var id="x90"> 2 10 14 17 </var>
    <var id="x91"> 0 11 13 </var>
    <var id="x92"> 0 2 10 11 14 </var>
    <var id="x93"> 2 11 13 17 </var>
    <var id="x94"> 0 2 </var>
    <var id="x95"> 1 3 6 8 </var>
    <var id="x96"> 1 3 8 12 </var>
    <var id="x97"> 2 17 </var>
    <var id="x98"> 1 2 6 12 17 </var>
    <var id="x99"> 0 1 3 6 8 </var>
    <var id="x100"> 0 1 17 </var>
    <var id="x101"> 1 2 6 17 </var>
    <var id="x102"> 1 4 13 15 </var>
    <var id="x103"> 0 2 5 11 13 15 </var>
    <var id="x104"> 0 4 5 </var>
    <var id="x105"> 1 2 4 5 13 </var>
    <var id="x106"> 2 13 15 </var>
    <var id="x107"> 1 4 13 </var>
    <var id="x108"> 0 1 15 </var>
    <var id="x109"> 0..2 </var>
    <var id="x110"> 4 6 16 </var>
    <var id="x111"> 1 4 6 14 </var>
    <var id="x112"> 1 4 </var>
    <var id="x113"> 1 14 15 </var>
    <var id="x114"> 1 6 14 </var>
    <var id="x115"> 1 6 13 16 </var>
    <var id="x116"> 1 4 6 13 </var>
    <var id="x117"> 1 3 4 13 </var>
    <var id="x118"> 10 13 </var>
    <var id="x119"> 1 3 4 12 13 </var>
    <var id="x120"> 3 8 13 </var>
    <var id="x121"> 10 13 17 </var>
    <var id="x122"> 1 3 4 12 </var>
    <var id="x123"> 1 3 8 10 17 </var>
    <var id="x124"> 1 4 13 17 </var>
    <var id="x125"> 0 5 6 </var>
    <var id="x126"> 6 8 14 </var>
    <var id="x127"> 5 6 13 </var>
    <var id="x128"> 0 8 10 14 </var>
    <var id="x129"> 0 6 10 14 </var>
    <var id="x130"> 6 7 10 14 </var>
    <var id="x131"> 0 5 13 </var>
    <var id="x132"> 0 8 10 14 </var>
    <var id="x133"> 3 9 13 15 </var>
    <var id="x134"> 3 9 14 16 </var>
    <var id="x135"> 3 5 13 </var>
    <var id="x136"> 14 16 </var>
    <var id="x137"> 9 11 14 </var>
    <var id="x138"> 3 11 13 16 </var>
    <var id="x139"> 5 9 13 15 </var>
    <var id="x140"> 5 11 13 </var>
  </variables>
  <constraints>
    <group>
      <allDifferent> %... </allDifferent>
      <args> x0 x1 x2 x3 x4 x5 x6 x7 </args>
      <args> x8 x9 x10 x11 x12 x13 x14 x15 </args>
      <args> x16 x17 x18 x19 x20 x21 x22 x23 </args>
      <args> x24 x25 x26 x27 x28 x29 x30 x31 </args>
      <args> x32 x33 x34 x35 x36 x37 x38 x39 </args>
      <args> x40 x41 x42 x43 x44 x45 x46 x47 </args>
      <args> x48 x49 x50 x51 x52 x53 x54 </args>
      <args> x55 x56 x57 x58 x59 x60 x61 </args>
      <args> x62 x63 x64 x65 x66 x67 x68 x69 </args>
      <args> x70 x71 x72 x73 x74 x75 x76 x77 </args>
      <args> x78 x79 x80 x81 x82 x83 x84 x85 </args>
      <args> x86 x87 x88 x89 x90 x91 x92 x93 </args>
      <args> x94 x95 x96 x97 x98 x99 x100 x101 </args>
      <args> x102 x103 x104 x105 x106 x107 x108 x109 </args>
      <args> x110 x111 x112 x113 x114 x115 x116 </args>
      <args> x117 x118 x119 x120 x121 x122 x123 x124 </args>
      <args> x125 x126 x127 x128 x129 x130 x131 x132 </args>
      <args> x133 x134 x135 x136 x137 x138 x139 x140 </args>
      <args> x16 x32 x48 x78 x86 x102 x117 x133 </args>
      <args> x0 x17 x33 x55 x87 x94 x103 x118 </args>
      <args> x24 x34 x62 x70 x104 x110 x125 </args>
      <args> x8 x18 x40 x56 x63 x95 x111 x126 </args>
      <args> x1 x9 x35 x49 x57 x71 x79 x134 </args>
      <args> x2 x41 x50 x64 x105 x119 x127 x135 </args>
      <args> x3 x10 x36 x72 x80 x106 x120 </args>
      <args> x4 x11 x19 x25 x65 x88 x96 x107 </args>
      <args> x20 x26 x58 x66 x81 x97 x121 </args>
      <args> x5 x12 x21 x42 x73 x89 x112 x122 </args>
      <args> x6 x27 x43 x51 x108 x113 x123 x128 </args>
      <args> x13 x22 x44 x52 x59 x109 x129 x136 </args>
      <args> x7 x45 x67 x82 x90 x98 x114 x130 </args>
      <args> x14 x28 x53 x60 x68 x74 x83 x137 </args>
      <args> x15 x29 x46 x54 x91 x99 x115 x138 </args>
      <args> x30 x37 x69 x75 x100 x124 x131 x139 </args>
      <args> x23 x31 x38 x47 x76 x84 x92 x132 </args>
      <args> x39 x61 x77 x85 x93 x101 x116 x140 </args>
    </group>
  </constraints>
</instance>

